Cu  O  C 
 1.0000000000000000
     7.7663105829041044    0.0000000000000000    0.0000000000000000
     0.0000000000000000    7.7663105829041044    0.0000000000000000
     0.0000000000000000    0.0000000000000000   23.6610437459507992
  27   2   2
Selective dynamics
Cartesian
  0.0000000000000000  0.0000000000000000  9.9999819179753473   F   F   F
  2.5887744310000147  0.0000000000000000  9.9999819179753473   F   F   F
  5.1775488629999993  0.0000000000000000  9.9999819179753473   F   F   F
  0.0000000000000000  2.5887744310000147  9.9999819179753473   F   F   F
  2.5887744310000147  2.5887744310000147  9.9999819179753473   F   F   F
  5.1775488629999993  2.5887744310000147  9.9999819179753473   F   F   F
  0.0000000000000000  5.1775488629999993  9.9999819179753473   F   F   F
  2.5887744310000147  5.1775488629999993  9.9999819179753473   F   F   F
  5.1775488629999993  5.1775488629999993  9.9999819179753473   F   F   F
  1.2943872160000198  1.2943872160000198 11.8305218729753996   F   F   F
  3.8831616469999792  1.2943872160000198 11.8305218729753996   F   F   F
  6.4719360779999935  1.2943872160000198 11.8305218729753996   F   F   F
  1.2943872160000198  3.8831616469999792 11.8305218729753996   F   F   F
  3.8831616469999792  3.8831616469999792 11.8305218729753996   F   F   F
  6.4719360779999935  3.8831616469999792 11.8305218729753996   F   F   F
  1.2943872160000198  6.4719360779999935 11.8305218729753996   F   F   F
  3.8831616469999792  6.4719360779999935 11.8305218729753996   F   F   F
  6.4719360779999935  6.4719360779999935 11.8305218729753996   F   F   F
  7.7662842240219172  7.7613809593381031 13.5823843204358337   T   T   T
  2.5653670163220643  7.7501048513487847 13.6277919662002951   T   T   T
  5.2008753448590399  7.7500994883022845 13.6277598891215135   T   T   T
  7.7662935188607696  2.5907585831859570 13.5841356947381691   T   T   T
  2.5667528604168686  2.6064765135143251 13.6310203262808756   T   T   T
  5.1995075080857163  2.6064831130375072 13.6309788459898797   T   T   T
  7.7663137457522851  5.1777162601727555 13.5548539936342998   T   T   T
  2.5631318934888374  5.1803420367776081 13.5591682063165848   T   T   T
  5.2031816849142238  5.1803464307120528 13.5591080224500438   T   T   T
  3.8831842695732233  6.9656011897249970 16.1695360799998653   T   T   T
  3.8831770223245026  3.3592017132103953 16.1865589809172938   T   T   T
  3.8830945455258949  7.1688242137835676 14.9996899335423723   T   T   T
  3.8831259086569396  3.1504194724689487 15.0190001966448392   T   T   T
